************************************************************************
file with basedata            : mm12_.bas
initial value random generator: 1471179541
************************************************************************
projects                      :  1
jobs (incl. supersource/sink ):  12
horizon                       :  86
RESOURCES
  - renewable                 :  2   R
  - nonrenewable              :  2   N
  - doubly constrained        :  0   D
************************************************************************
PROJECT INFORMATION:
pronr.  #jobs rel.date duedate tardcost  MPM-Time
    1     10      0       17        0       17
************************************************************************
PRECEDENCE RELATIONS:
jobnr.    #modes  #successors   successors
   0        1          3           1   2   3
   1        3          1           9
   2        3          3           5   6   8
   3        3          3           4   6  10
   4        3          1           8
   5        3          2           7  10
   6        3          1           7
   7        3          1           9
   8        3          1          11
   9        3          1          11
  10        3          1          11
  11        1          0        
************************************************************************
REQUESTS/DURATIONS:
jobnr. mode duration  R 1  R 2  R 3  R 4  E(W 1)  E(W 2)  E(W 3)
------------------------------------------------------------------------
  0      1     0       0    0    0    0     0       0       0
  1      1     6       3    0    7    0    18      42       0
  2      1     5       0    4   10    0    20      50       0
  3      1     1       0    7    0    6     7       0       6
  4      1     3       0    8    0    3    24       0       9
  5      1     2       0    8    8    0    16      16       0
  6      1     9       3    0    0    9    27       0      81
  7      1     2       8    0   10    0    16      20       0
  8      1     2       0    6    0    8    12       0      16
  9      1     1       0    8    7    0     8       7       0
 10      1     6       0    4   10    0    24      60       0
 11      1     0       0    0    0    0     0       0       0
************************************************************************
RESOURCEAVAILABILITIES:
  R 1  R 2  R 3
   28   81   51
************************************************************************
RESOURCE LIMITS:
jobnr.  l(R 1)  u(R 1)  l(R 2)  u(R 2)  l(R 3)  u(R 3)
------------------------------------------------------------------------
  0        0       0       0       0       0       0
  1        2       3       4       7       0       0
  2        2       4       5      10       0       0
  3        4       7       0       0       3       6
  4        4       8       0       0       2       3
  5        4       8       4       8       0       0
  6        2       3       0       0       5       9
  7        4       8       5      10       0       0
  8        3       6       0       0       4       8
  9        4       8       4       7       0       0
 10        2       4       5      10       0       0
 11        0       0       0       0       0       0
************************************************************************
SCENARIOS:
------------------------------------------------------------------------
RESOURCE k = 1
s = 1: (0, 17, 17, 9, 23, 11, 26, 17, 12, 14, 21, 0)
s = 2: (0, 29, 21, 8, 21, 20, 27, 20, 9, 9, 23, 0)
s = 3: (0, 25, 23, 8, 29, 17, 27, 26, 7, 12, 31, 0)
s = 4: (0, 15, 24, 7, 18, 18, 24, 16, 12, 9, 20, 0)
s = 5: (0, 13, 20, 7, 17, 14, 27, 16, 15, 6, 22, 0)
s = 6: (0, 12, 31, 5, 29, 9, 18, 14, 12, 11, 18, 0)
s = 7: (0, 26, 25, 7, 18, 17, 27, 15, 16, 10, 16, 0)
s = 8: (0, 18, 18, 5, 17, 19, 27, 10, 8, 10, 26, 0)
s = 9: (0, 20, 26, 5, 15, 15, 21, 17, 11, 7, 26, 0)
s = 10: (0, 19, 22, 5, 29, 22, 32, 11, 15, 12, 23, 0)
s = 11: (0, 23, 17, 6, 27, 19, 30, 18, 8, 6, 25, 0)
s = 12: (0, 32, 25, 8, 20, 19, 22, 17, 13, 10, 21, 0)
s = 13: (0, 21, 28, 6, 21, 23, 23, 17, 13, 6, 31, 0)
s = 14: (0, 15, 27, 10, 24, 12, 40, 15, 13, 11, 16, 0)
s = 15: (0, 24, 15, 7, 30, 13, 29, 20, 20, 10, 23, 0)
s = 16: (0, 29, 27, 5, 39, 19, 20, 18, 11, 13, 20, 0)
s = 17: (0, 11, 16, 8, 24, 18, 24, 12, 11, 7, 36, 0)
s = 18: (0, 20, 23, 11, 16, 17, 22, 14, 19, 10, 19, 0)
s = 19: (0, 24, 16, 7, 34, 18, 22, 15, 13, 9, 27, 0)
s = 20: (0, 28, 12, 4, 23, 11, 25, 11, 12, 10, 14, 0)
s = 21: (0, 15, 22, 6, 15, 14, 26, 15, 14, 9, 14, 0)
s = 22: (0, 12, 13, 8, 22, 12, 32, 14, 11, 10, 19, 0)
s = 23: (0, 20, 16, 9, 19, 18, 27, 13, 19, 8, 26, 0)
s = 24: (0, 11, 29, 5, 29, 15, 22, 14, 10, 11, 29, 0)
s = 25: (0, 13, 18, 7, 34, 16, 17, 15, 10, 8, 36, 0)
s = 26: (0, 18, 20, 7, 17, 16, 40, 17, 18, 7, 21, 0)
s = 27: (0, 22, 29, 6, 17, 20, 20, 17, 8, 9, 23, 0)
s = 28: (0, 31, 25, 8, 22, 9, 35, 21, 14, 10, 40, 0)
s = 29: (0, 19, 26, 7, 31, 13, 29, 16, 14, 7, 19, 0)
s = 30: (0, 11, 17, 9, 22, 18, 20, 10, 11, 7, 18, 0)
s = 31: (0, 32, 17, 7, 18, 14, 28, 14, 17, 8, 23, 0)
s = 32: (0, 13, 24, 5, 24, 14, 40, 13, 9, 10, 25, 0)
s = 33: (0, 14, 18, 5, 14, 11, 29, 18, 11, 7, 30, 0)
s = 34: (0, 24, 15, 9, 34, 20, 27, 19, 11, 9, 33, 0)
s = 35: (0, 13, 29, 6, 18, 24, 25, 20, 10, 6, 29, 0)
s = 36: (0, 26, 13, 9, 19, 13, 25, 15, 18, 9, 29, 0)
s = 37: (0, 14, 25, 8, 26, 18, 23, 17, 19, 5, 25, 0)
s = 38: (0, 22, 18, 7, 31, 20, 25, 18, 15, 12, 18, 0)
s = 39: (0, 19, 16, 7, 30, 22, 31, 24, 10, 5, 35, 0)
s = 40: (0, 16, 17, 6, 28, 17, 27, 11, 11, 14, 38, 0)
s = 41: (0, 17, 14, 5, 32, 20, 28, 10, 13, 7, 18, 0)
s = 42: (0, 24, 17, 6, 19, 13, 33, 11, 12, 8, 24, 0)
s = 43: (0, 14, 25, 7, 16, 20, 21, 24, 11, 10, 31, 0)
s = 44: (0, 26, 30, 7, 25, 12, 36, 12, 11, 5, 15, 0)
s = 45: (0, 21, 18, 9, 18, 13, 24, 18, 10, 8, 33, 0)
s = 46: (0, 17, 33, 9, 14, 14, 20, 12, 20, 8, 38, 0)
s = 47: (0, 23, 15, 4, 20, 14, 26, 21, 12, 8, 25, 0)
s = 48: (0, 22, 20, 6, 19, 16, 30, 14, 12, 9, 29, 0)
s = 49: (0, 20, 27, 8, 19, 13, 30, 20, 8, 11, 24, 0)
s = 50: (0, 19, 20, 10, 33, 19, 27, 25, 15, 7, 22, 0)
s = 51: (0, 17, 25, 6, 21, 15, 16, 19, 12, 9, 29, 0)
s = 52: (0, 29, 16, 6, 28, 16, 21, 13, 16, 9, 38, 0)
s = 53: (0, 29, 18, 6, 20, 13, 33, 20, 11, 6, 18, 0)
s = 54: (0, 20, 20, 10, 26, 10, 23, 9, 12, 12, 34, 0)
s = 55: (0, 11, 20, 8, 33, 17, 36, 17, 20, 12, 18, 0)
s = 56: (0, 26, 23, 14, 18, 14, 20, 19, 10, 10, 27, 0)
s = 57: (0, 14, 26, 5, 33, 16, 43, 24, 11, 8, 23, 0)
s = 58: (0, 17, 27, 6, 18, 24, 17, 23, 15, 5, 14, 0)
s = 59: (0, 21, 25, 8, 18, 16, 35, 12, 8, 6, 26, 0)
s = 60: (0, 18, 23, 7, 29, 23, 19, 15, 15, 7, 20, 0)
s = 61: (0, 25, 23, 11, 29, 15, 36, 9, 16, 7, 21, 0)
s = 62: (0, 28, 16, 6, 21, 22, 25, 11, 13, 14, 25, 0)
s = 63: (0, 26, 17, 7, 37, 10, 36, 19, 9, 9, 23, 0)
s = 64: (0, 14, 22, 8, 15, 21, 26, 12, 12, 7, 26, 0)
s = 65: (0, 12, 26, 11, 34, 10, 32, 19, 9, 11, 19, 0)
s = 66: (0, 15, 22, 7, 33, 9, 19, 16, 8, 12, 20, 0)
s = 67: (0, 18, 14, 5, 27, 17, 26, 19, 10, 12, 20, 0)
s = 68: (0, 24, 13, 8, 22, 14, 46, 13, 16, 5, 21, 0)
s = 69: (0, 20, 26, 7, 26, 19, 36, 23, 13, 7, 22, 0)
s = 70: (0, 24, 16, 11, 22, 14, 24, 26, 16, 7, 19, 0)
s = 71: (0, 21, 15, 9, 14, 21, 38, 12, 11, 10, 18, 0)
s = 72: (0, 15, 32, 6, 24, 19, 24, 22, 8, 6, 25, 0)
s = 73: (0, 21, 19, 10, 33, 26, 18, 12, 7, 9, 30, 0)
s = 74: (0, 18, 21, 7, 16, 11, 22, 13, 14, 8, 22, 0)
s = 75: (0, 34, 28, 8, 28, 18, 19, 19, 16, 8, 21, 0)
s = 76: (0, 21, 12, 5, 30, 11, 36, 14, 11, 9, 34, 0)
s = 77: (0, 14, 16, 8, 26, 23, 48, 18, 17, 10, 29, 0)
s = 78: (0, 19, 16, 5, 33, 18, 29, 24, 8, 9, 23, 0)
s = 79: (0, 17, 19, 6, 27, 15, 37, 18, 8, 8, 32, 0)
s = 80: (0, 23, 22, 10, 25, 18, 28, 21, 12, 6, 32, 0)
s = 81: (0, 26, 15, 8, 24, 22, 28, 18, 15, 9, 33, 0)
s = 82: (0, 12, 27, 9, 32, 12, 21, 19, 14, 8, 25, 0)
s = 83: (0, 27, 31, 9, 26, 16, 34, 10, 15, 11, 26, 0)
s = 84: (0, 18, 30, 7, 23, 16, 29, 18, 9, 8, 33, 0)
s = 85: (0, 12, 13, 6, 14, 17, 20, 13, 12, 9, 18, 0)
s = 86: (0, 13, 17, 8, 17, 18, 41, 15, 9, 9, 17, 0)
s = 87: (0, 12, 17, 5, 29, 23, 17, 20, 9, 7, 25, 0)
s = 88: (0, 23, 31, 7, 16, 14, 30, 15, 10, 7, 17, 0)
s = 89: (0, 21, 28, 10, 25, 14, 38, 21, 11, 6, 33, 0)
s = 90: (0, 22, 22, 7, 33, 13, 30, 17, 22, 9, 25, 0)
s = 91: (0, 32, 24, 9, 16, 10, 34, 21, 9, 5, 31, 0)
s = 92: (0, 19, 19, 7, 16, 13, 27, 20, 9, 9, 21, 0)
s = 93: (0, 24, 20, 8, 31, 18, 18, 15, 18, 8, 15, 0)
s = 94: (0, 18, 15, 8, 16, 16, 46, 23, 16, 6, 18, 0)
s = 95: (0, 30, 18, 4, 29, 24, 37, 26, 13, 11, 25, 0)
s = 96: (0, 14, 24, 10, 24, 20, 22, 17, 12, 11, 22, 0)
s = 97: (0, 28, 18, 7, 19, 23, 30, 20, 11, 14, 23, 0)
s = 98: (0, 33, 20, 6, 15, 14, 26, 15, 12, 11, 33, 0)
s = 99: (0, 22, 20, 10, 17, 17, 27, 27, 11, 10, 17, 0)
s = 100: (0, 15, 19, 7, 16, 16, 33, 11, 19, 7, 26, 0)
s = 101: (0, 17, 17, 7, 31, 14, 16, 11, 12, 12, 41, 0)
s = 102: (0, 15, 25, 6, 24, 17, 19, 16, 11, 10, 23, 0)
s = 103: (0, 13, 11, 6, 20, 12, 25, 21, 11, 7, 29, 0)
s = 104: (0, 24, 17, 7, 18, 26, 36, 15, 16, 11, 17, 0)
s = 105: (0, 22, 20, 10, 24, 23, 18, 17, 16, 9, 14, 0)
s = 106: (0, 25, 13, 6, 17, 26, 25, 10, 14, 8, 31, 0)
s = 107: (0, 16, 11, 6, 28, 19, 17, 34, 9, 12, 23, 0)
s = 108: (0, 17, 13, 10, 19, 13, 17, 20, 9, 6, 24, 0)
s = 109: (0, 16, 20, 5, 14, 17, 17, 11, 18, 7, 35, 0)
s = 110: (0, 12, 24, 8, 19, 16, 25, 18, 16, 16, 19, 0)
s = 111: (0, 29, 26, 5, 20, 12, 18, 15, 18, 13, 31, 0)
s = 112: (0, 18, 29, 6, 15, 11, 48, 17, 19, 6, 18, 0)
s = 113: (0, 20, 12, 8, 16, 22, 24, 15, 7, 10, 38, 0)
s = 114: (0, 25, 24, 5, 31, 15, 27, 18, 9, 12, 16, 0)
s = 115: (0, 19, 35, 7, 16, 19, 26, 19, 14, 8, 28, 0)
s = 116: (0, 21, 16, 7, 31, 14, 19, 18, 18, 9, 40, 0)
s = 117: (0, 18, 18, 5, 27, 16, 20, 25, 11, 9, 24, 0)
s = 118: (0, 17, 15, 5, 23, 14, 46, 21, 11, 9, 46, 0)
s = 119: (0, 18, 16, 5, 21, 13, 19, 27, 12, 8, 22, 0)
s = 120: (0, 27, 26, 7, 31, 13, 21, 19, 9, 14, 17, 0)
s = 121: (0, 12, 22, 6, 25, 14, 47, 19, 13, 10, 27, 0)
s = 122: (0, 21, 18, 5, 29, 18, 52, 20, 12, 11, 27, 0)
s = 123: (0, 23, 19, 11, 24, 25, 21, 24, 9, 7, 19, 0)
s = 124: (0, 18, 36, 5, 33, 18, 36, 18, 10, 6, 17, 0)
s = 125: (0, 11, 19, 8, 13, 23, 20, 23, 14, 9, 14, 0)
s = 126: (0, 16, 20, 5, 19, 13, 35, 15, 14, 8, 27, 0)
s = 127: (0, 23, 15, 6, 24, 12, 30, 11, 9, 12, 26, 0)
s = 128: (0, 18, 19, 9, 19, 10, 29, 11, 10, 12, 21, 0)
s = 129: (0, 21, 12, 6, 15, 27, 29, 17, 11, 7, 22, 0)
s = 130: (0, 25, 23, 10, 21, 12, 21, 11, 15, 9, 30, 0)
s = 131: (0, 30, 23, 8, 17, 13, 27, 23, 9, 7, 26, 0)
s = 132: (0, 16, 12, 10, 28, 22, 20, 16, 9, 7, 25, 0)
s = 133: (0, 17, 31, 11, 30, 13, 26, 21, 8, 5, 21, 0)
s = 134: (0, 17, 16, 6, 36, 16, 41, 9, 10, 12, 22, 0)
s = 135: (0, 19, 19, 7, 18, 9, 27, 20, 20, 6, 16, 0)
s = 136: (0, 26, 27, 7, 24, 29, 27, 16, 11, 7, 24, 0)
s = 137: (0, 21, 37, 9, 23, 15, 30, 12, 11, 10, 22, 0)
s = 138: (0, 26, 15, 11, 30, 9, 24, 13, 10, 8, 20, 0)
s = 139: (0, 10, 15, 7, 26, 18, 19, 12, 11, 10, 24, 0)
s = 140: (0, 19, 21, 11, 18, 21, 16, 15, 10, 11, 23, 0)
s = 141: (0, 11, 25, 4, 13, 12, 43, 26, 13, 12, 17, 0)
s = 142: (0, 15, 14, 6, 24, 19, 43, 21, 14, 11, 13, 0)
s = 143: (0, 20, 25, 8, 29, 19, 36, 15, 10, 6, 18, 0)
s = 144: (0, 22, 15, 12, 20, 14, 40, 15, 10, 9, 24, 0)
s = 145: (0, 23, 30, 11, 15, 17, 19, 15, 15, 6, 20, 0)
s = 146: (0, 18, 21, 7, 28, 21, 26, 13, 8, 6, 30, 0)
s = 147: (0, 15, 30, 9, 21, 21, 29, 11, 14, 8, 25, 0)
s = 148: (0, 26, 15, 7, 37, 12, 37, 17, 7, 7, 16, 0)
s = 149: (0, 23, 38, 5, 15, 12, 26, 10, 13, 9, 27, 0)
s = 150: (0, 17, 14, 12, 18, 15, 29, 19, 19, 8, 42, 0)
s = 151: (0, 15, 13, 7, 27, 13, 19, 14, 15, 7, 15, 0)
s = 152: (0, 14, 22, 5, 22, 14, 35, 15, 13, 10, 24, 0)
s = 153: (0, 12, 20, 8, 32, 18, 20, 14, 15, 10, 18, 0)
s = 154: (0, 12, 15, 8, 13, 10, 18, 13, 13, 13, 22, 0)
s = 155: (0, 21, 15, 5, 31, 26, 43, 21, 12, 8, 27, 0)
s = 156: (0, 19, 28, 6, 26, 20, 25, 10, 20, 7, 30, 0)
s = 157: (0, 35, 19, 14, 17, 11, 42, 25, 21, 10, 23, 0)
s = 158: (0, 13, 13, 10, 33, 13, 25, 11, 10, 11, 20, 0)
s = 159: (0, 20, 12, 6, 23, 23, 19, 12, 9, 9, 21, 0)
s = 160: (0, 25, 19, 8, 20, 17, 25, 17, 10, 8, 36, 0)
s = 161: (0, 20, 17, 7, 24, 12, 20, 24, 13, 9, 25, 0)
s = 162: (0, 15, 19, 6, 33, 9, 25, 22, 14, 11, 29, 0)
s = 163: (0, 19, 26, 9, 17, 24, 24, 17, 18, 7, 19, 0)
s = 164: (0, 18, 22, 9, 31, 9, 32, 15, 16, 8, 40, 0)
s = 165: (0, 14, 26, 11, 20, 9, 30, 10, 7, 7, 19, 0)
s = 166: (0, 23, 28, 8, 25, 17, 43, 19, 13, 8, 20, 0)
s = 167: (0, 15, 23, 11, 31, 22, 27, 11, 12, 9, 27, 0)
s = 168: (0, 14, 19, 9, 17, 23, 25, 14, 12, 7, 15, 0)
s = 169: (0, 26, 19, 7, 19, 21, 31, 13, 14, 7, 24, 0)
s = 170: (0, 12, 22, 6, 19, 18, 31, 15, 10, 8, 23, 0)
s = 171: (0, 10, 24, 12, 20, 21, 32, 21, 17, 10, 28, 0)
s = 172: (0, 14, 21, 8, 22, 27, 35, 21, 12, 10, 19, 0)
s = 173: (0, 17, 20, 11, 30, 16, 19, 24, 15, 6, 22, 0)
s = 174: (0, 16, 17, 7, 16, 18, 35, 25, 9, 11, 26, 0)
s = 175: (0, 19, 15, 6, 31, 18, 19, 16, 11, 7, 21, 0)
s = 176: (0, 16, 20, 12, 16, 11, 24, 27, 10, 9, 27, 0)
s = 177: (0, 11, 21, 7, 37, 18, 35, 18, 14, 9, 18, 0)
s = 178: (0, 20, 28, 7, 40, 14, 27, 13, 11, 12, 30, 0)
s = 179: (0, 16, 20, 6, 21, 16, 37, 16, 10, 10, 28, 0)
s = 180: (0, 17, 15, 5, 23, 13, 35, 18, 14, 9, 16, 0)
s = 181: (0, 25, 12, 11, 27, 13, 23, 18, 16, 13, 23, 0)
s = 182: (0, 19, 16, 10, 23, 16, 20, 14, 13, 10, 34, 0)
s = 183: (0, 14, 16, 7, 25, 19, 22, 20, 15, 13, 20, 0)
s = 184: (0, 13, 16, 9, 20, 23, 20, 21, 10, 10, 16, 0)
s = 185: (0, 19, 18, 8, 16, 10, 38, 25, 16, 6, 27, 0)
s = 186: (0, 18, 20, 10, 24, 17, 24, 19, 9, 13, 35, 0)
s = 187: (0, 19, 25, 10, 17, 22, 40, 15, 16, 9, 22, 0)
s = 188: (0, 23, 22, 10, 37, 14, 20, 24, 7, 7, 26, 0)
s = 189: (0, 13, 23, 8, 28, 20, 29, 17, 15, 12, 30, 0)
s = 190: (0, 19, 33, 7, 31, 17, 23, 11, 11, 8, 17, 0)
s = 191: (0, 34, 18, 7, 21, 15, 29, 12, 11, 5, 25, 0)
s = 192: (0, 11, 17, 10, 28, 13, 35, 18, 7, 6, 26, 0)
s = 193: (0, 12, 18, 9, 24, 17, 20, 25, 14, 6, 44, 0)
s = 194: (0, 22, 24, 8, 20, 12, 27, 12, 12, 10, 22, 0)
s = 195: (0, 31, 16, 6, 17, 22, 21, 13, 19, 5, 21, 0)
s = 196: (0, 25, 21, 7, 18, 18, 35, 19, 17, 5, 15, 0)
s = 197: (0, 18, 15, 8, 15, 21, 31, 17, 11, 10, 16, 0)
s = 198: (0, 14, 23, 7, 20, 18, 33, 24, 8, 7, 19, 0)
s = 199: (0, 12, 21, 8, 25, 15, 26, 18, 12, 7, 22, 0)
s = 200: (0, 17, 13, 10, 29, 16, 29, 23, 9, 7, 37, 0)
------------------------------------------------------------------------
RESOURCE k = 2
s = 1: (0, 38, 42, 0, 0, 11, 0, 21, 0, 12, 51, 0)
s = 2: (0, 67, 51, 0, 0, 20, 0, 24, 0, 8, 57, 0)
s = 3: (0, 57, 56, 0, 0, 17, 0, 32, 0, 10, 76, 0)
s = 4: (0, 35, 59, 0, 0, 18, 0, 19, 0, 8, 48, 0)
s = 5: (0, 29, 49, 0, 0, 14, 0, 20, 0, 6, 54, 0)
s = 6: (0, 27, 78, 0, 0, 9, 0, 18, 0, 10, 45, 0)
s = 7: (0, 59, 63, 0, 0, 17, 0, 18, 0, 9, 38, 0)
s = 8: (0, 41, 44, 0, 0, 19, 0, 12, 0, 9, 63, 0)
s = 9: (0, 46, 64, 0, 0, 15, 0, 21, 0, 6, 65, 0)
s = 10: (0, 44, 55, 0, 0, 22, 0, 14, 0, 10, 57, 0)
s = 11: (0, 53, 41, 0, 0, 19, 0, 22, 0, 6, 62, 0)
s = 12: (0, 74, 61, 0, 0, 19, 0, 21, 0, 9, 51, 0)
s = 13: (0, 47, 69, 0, 0, 23, 0, 21, 0, 5, 77, 0)
s = 14: (0, 35, 66, 0, 0, 12, 0, 18, 0, 10, 40, 0)
s = 15: (0, 55, 36, 0, 0, 13, 0, 25, 0, 9, 56, 0)
s = 16: (0, 68, 68, 0, 0, 19, 0, 23, 0, 12, 50, 0)
s = 17: (0, 24, 39, 0, 0, 18, 0, 14, 0, 6, 90, 0)
s = 18: (0, 46, 57, 0, 0, 17, 0, 17, 0, 9, 47, 0)
s = 19: (0, 55, 40, 0, 0, 18, 0, 19, 0, 8, 66, 0)
s = 20: (0, 66, 28, 0, 0, 11, 0, 13, 0, 8, 34, 0)
s = 21: (0, 34, 53, 0, 0, 14, 0, 19, 0, 8, 35, 0)
s = 22: (0, 27, 32, 0, 0, 12, 0, 17, 0, 9, 47, 0)
s = 23: (0, 47, 38, 0, 0, 18, 0, 17, 0, 7, 64, 0)
s = 24: (0, 24, 72, 0, 0, 15, 0, 18, 0, 9, 71, 0)
s = 25: (0, 30, 44, 0, 0, 16, 0, 18, 0, 7, 89, 0)
s = 26: (0, 42, 50, 0, 0, 16, 0, 21, 0, 7, 51, 0)
s = 27: (0, 50, 72, 0, 0, 20, 0, 21, 0, 8, 56, 0)
s = 28: (0, 72, 61, 0, 0, 9, 0, 27, 0, 9, 99, 0)
s = 29: (0, 45, 65, 0, 0, 13, 0, 20, 0, 6, 47, 0)
s = 30: (0, 26, 42, 0, 0, 18, 0, 12, 0, 6, 44, 0)
s = 31: (0, 73, 42, 0, 0, 14, 0, 17, 0, 7, 58, 0)
s = 32: (0, 31, 60, 0, 0, 14, 0, 16, 0, 9, 62, 0)
s = 33: (0, 31, 45, 0, 0, 11, 0, 22, 0, 6, 74, 0)
s = 34: (0, 55, 37, 0, 0, 20, 0, 23, 0, 8, 82, 0)
s = 35: (0, 29, 71, 0, 0, 24, 0, 25, 0, 6, 71, 0)
s = 36: (0, 60, 31, 0, 0, 13, 0, 18, 0, 8, 71, 0)
s = 37: (0, 32, 61, 0, 0, 18, 0, 22, 0, 5, 62, 0)
s = 38: (0, 50, 43, 0, 0, 20, 0, 22, 0, 10, 43, 0)
s = 39: (0, 43, 38, 0, 0, 22, 0, 30, 0, 5, 87, 0)
s = 40: (0, 37, 43, 0, 0, 17, 0, 14, 0, 13, 94, 0)
s = 41: (0, 40, 34, 0, 0, 20, 0, 12, 0, 6, 44, 0)
s = 42: (0, 55, 41, 0, 0, 13, 0, 14, 0, 7, 60, 0)
s = 43: (0, 32, 63, 0, 0, 20, 0, 30, 0, 9, 77, 0)
s = 44: (0, 60, 75, 0, 0, 12, 0, 14, 0, 5, 38, 0)
s = 45: (0, 49, 44, 0, 0, 13, 0, 22, 0, 7, 82, 0)
s = 46: (0, 39, 82, 0, 0, 14, 0, 15, 0, 7, 94, 0)
s = 47: (0, 52, 38, 0, 0, 14, 0, 26, 0, 7, 61, 0)
s = 48: (0, 52, 49, 0, 0, 16, 0, 18, 0, 8, 71, 0)
s = 49: (0, 46, 67, 0, 0, 13, 0, 25, 0, 9, 59, 0)
s = 50: (0, 44, 50, 0, 0, 19, 0, 31, 0, 7, 54, 0)
s = 51: (0, 39, 61, 0, 0, 15, 0, 23, 0, 8, 71, 0)
s = 52: (0, 66, 40, 0, 0, 16, 0, 16, 0, 8, 94, 0)
s = 53: (0, 68, 43, 0, 0, 13, 0, 25, 0, 5, 43, 0)
s = 54: (0, 46, 50, 0, 0, 10, 0, 11, 0, 11, 85, 0)
s = 55: (0, 26, 49, 0, 0, 17, 0, 21, 0, 10, 44, 0)
s = 56: (0, 60, 56, 0, 0, 14, 0, 23, 0, 9, 67, 0)
s = 57: (0, 33, 63, 0, 0, 16, 0, 30, 0, 7, 58, 0)
s = 58: (0, 39, 67, 0, 0, 24, 0, 28, 0, 4, 35, 0)
s = 59: (0, 47, 62, 0, 0, 16, 0, 15, 0, 6, 65, 0)
s = 60: (0, 40, 56, 0, 0, 23, 0, 19, 0, 6, 50, 0)
s = 61: (0, 59, 58, 0, 0, 15, 0, 12, 0, 6, 53, 0)
s = 62: (0, 64, 39, 0, 0, 22, 0, 14, 0, 13, 62, 0)
s = 63: (0, 59, 42, 0, 0, 10, 0, 23, 0, 8, 58, 0)
s = 64: (0, 31, 53, 0, 0, 21, 0, 15, 0, 6, 64, 0)
s = 65: (0, 28, 63, 0, 0, 10, 0, 24, 0, 10, 47, 0)
s = 66: (0, 35, 54, 0, 0, 9, 0, 20, 0, 10, 49, 0)
s = 67: (0, 42, 33, 0, 0, 17, 0, 24, 0, 11, 49, 0)
s = 68: (0, 56, 31, 0, 0, 14, 0, 16, 0, 4, 52, 0)
s = 69: (0, 46, 65, 0, 0, 19, 0, 28, 0, 6, 55, 0)
s = 70: (0, 55, 40, 0, 0, 14, 0, 33, 0, 6, 46, 0)
s = 71: (0, 47, 37, 0, 0, 21, 0, 15, 0, 9, 45, 0)
s = 72: (0, 34, 80, 0, 0, 19, 0, 27, 0, 6, 62, 0)
s = 73: (0, 48, 46, 0, 0, 26, 0, 15, 0, 8, 75, 0)
s = 74: (0, 41, 52, 0, 0, 11, 0, 16, 0, 7, 55, 0)
s = 75: (0, 78, 70, 0, 0, 18, 0, 23, 0, 7, 52, 0)
s = 76: (0, 48, 30, 0, 0, 11, 0, 17, 0, 8, 83, 0)
s = 77: (0, 32, 39, 0, 0, 23, 0, 23, 0, 9, 72, 0)
s = 78: (0, 43, 40, 0, 0, 18, 0, 30, 0, 8, 58, 0)
s = 79: (0, 39, 48, 0, 0, 15, 0, 23, 0, 7, 79, 0)
s = 80: (0, 54, 54, 0, 0, 18, 0, 26, 0, 5, 80, 0)
s = 81: (0, 60, 36, 0, 0, 22, 0, 23, 0, 8, 82, 0)
s = 82: (0, 28, 66, 0, 0, 12, 0, 23, 0, 7, 62, 0)
s = 83: (0, 62, 76, 0, 0, 16, 0, 13, 0, 10, 64, 0)
s = 84: (0, 40, 75, 0, 0, 16, 0, 23, 0, 7, 82, 0)
s = 85: (0, 28, 32, 0, 0, 17, 0, 17, 0, 8, 45, 0)
s = 86: (0, 30, 43, 0, 0, 18, 0, 18, 0, 8, 41, 0)
s = 87: (0, 28, 41, 0, 0, 23, 0, 25, 0, 6, 62, 0)
s = 88: (0, 52, 76, 0, 0, 14, 0, 19, 0, 6, 43, 0)
s = 89: (0, 48, 68, 0, 0, 14, 0, 26, 0, 5, 82, 0)
s = 90: (0, 51, 55, 0, 0, 13, 0, 21, 0, 8, 61, 0)
s = 91: (0, 75, 58, 0, 0, 10, 0, 27, 0, 5, 76, 0)
s = 92: (0, 43, 48, 0, 0, 13, 0, 25, 0, 8, 51, 0)
s = 93: (0, 56, 49, 0, 0, 18, 0, 19, 0, 7, 36, 0)
s = 94: (0, 41, 38, 0, 0, 16, 0, 29, 0, 6, 43, 0)
s = 95: (0, 70, 45, 0, 0, 24, 0, 32, 0, 10, 63, 0)
s = 96: (0, 32, 59, 0, 0, 20, 0, 22, 0, 10, 54, 0)
s = 97: (0, 65, 45, 0, 0, 23, 0, 25, 0, 12, 57, 0)
s = 98: (0, 76, 50, 0, 0, 14, 0, 18, 0, 10, 81, 0)
s = 99: (0, 51, 49, 0, 0, 17, 0, 33, 0, 9, 41, 0)
s = 100: (0, 35, 47, 0, 0, 16, 0, 14, 0, 6, 65, 0)
s = 101: (0, 39, 42, 0, 0, 14, 0, 14, 0, 11, 103, 0)
s = 102: (0, 35, 61, 0, 0, 17, 0, 20, 0, 8, 57, 0)
s = 103: (0, 29, 27, 0, 0, 12, 0, 26, 0, 6, 72, 0)
s = 104: (0, 55, 41, 0, 0, 26, 0, 19, 0, 10, 43, 0)
s = 105: (0, 52, 50, 0, 0, 23, 0, 22, 0, 8, 34, 0)
s = 106: (0, 57, 33, 0, 0, 26, 0, 13, 0, 7, 78, 0)
s = 107: (0, 38, 27, 0, 0, 19, 0, 43, 0, 11, 56, 0)
s = 108: (0, 38, 31, 0, 0, 13, 0, 25, 0, 5, 58, 0)
s = 109: (0, 36, 48, 0, 0, 17, 0, 14, 0, 6, 87, 0)
s = 110: (0, 26, 60, 0, 0, 16, 0, 22, 0, 14, 46, 0)
s = 111: (0, 68, 63, 0, 0, 12, 0, 19, 0, 11, 77, 0)
s = 112: (0, 41, 72, 0, 0, 11, 0, 21, 0, 5, 45, 0)
s = 113: (0, 45, 29, 0, 0, 22, 0, 18, 0, 9, 93, 0)
s = 114: (0, 58, 60, 0, 0, 15, 0, 22, 0, 10, 39, 0)
s = 115: (0, 44, 86, 0, 0, 19, 0, 24, 0, 7, 69, 0)
s = 116: (0, 47, 38, 0, 0, 14, 0, 23, 0, 8, 98, 0)
s = 117: (0, 40, 44, 0, 0, 16, 0, 31, 0, 8, 59, 0)
s = 118: (0, 39, 36, 0, 0, 14, 0, 26, 0, 8, 113, 0)
s = 119: (0, 41, 38, 0, 0, 13, 0, 33, 0, 7, 54, 0)
s = 120: (0, 62, 65, 0, 0, 13, 0, 23, 0, 12, 42, 0)
s = 121: (0, 27, 53, 0, 0, 14, 0, 23, 0, 8, 66, 0)
s = 122: (0, 48, 44, 0, 0, 18, 0, 25, 0, 10, 68, 0)
s = 123: (0, 52, 48, 0, 0, 25, 0, 30, 0, 6, 47, 0)
s = 124: (0, 41, 89, 0, 0, 18, 0, 23, 0, 5, 42, 0)
s = 125: (0, 26, 47, 0, 0, 23, 0, 29, 0, 8, 35, 0)
s = 126: (0, 36, 50, 0, 0, 13, 0, 19, 0, 7, 67, 0)
s = 127: (0, 53, 37, 0, 0, 12, 0, 13, 0, 10, 65, 0)
s = 128: (0, 41, 46, 0, 0, 10, 0, 13, 0, 10, 51, 0)
s = 129: (0, 48, 30, 0, 0, 27, 0, 21, 0, 6, 54, 0)
s = 130: (0, 57, 57, 0, 0, 12, 0, 13, 0, 8, 75, 0)
s = 131: (0, 70, 57, 0, 0, 13, 0, 28, 0, 7, 65, 0)
s = 132: (0, 36, 30, 0, 0, 22, 0, 20, 0, 6, 62, 0)
s = 133: (0, 39, 76, 0, 0, 13, 0, 26, 0, 5, 51, 0)
s = 134: (0, 39, 38, 0, 0, 16, 0, 12, 0, 11, 54, 0)
s = 135: (0, 43, 46, 0, 0, 9, 0, 25, 0, 5, 39, 0)
s = 136: (0, 60, 68, 0, 0, 29, 0, 20, 0, 6, 60, 0)
s = 137: (0, 48, 91, 0, 0, 15, 0, 15, 0, 9, 54, 0)
s = 138: (0, 61, 37, 0, 0, 9, 0, 17, 0, 7, 49, 0)
s = 139: (0, 23, 37, 0, 0, 18, 0, 15, 0, 8, 58, 0)
s = 140: (0, 45, 53, 0, 0, 21, 0, 19, 0, 10, 56, 0)
s = 141: (0, 26, 62, 0, 0, 12, 0, 33, 0, 10, 42, 0)
s = 142: (0, 34, 34, 0, 0, 19, 0, 26, 0, 10, 33, 0)
s = 143: (0, 47, 61, 0, 0, 19, 0, 19, 0, 5, 45, 0)
s = 144: (0, 51, 38, 0, 0, 14, 0, 19, 0, 8, 60, 0)
s = 145: (0, 53, 75, 0, 0, 17, 0, 18, 0, 6, 48, 0)
s = 146: (0, 42, 51, 0, 0, 21, 0, 16, 0, 5, 74, 0)
s = 147: (0, 33, 75, 0, 0, 21, 0, 13, 0, 7, 62, 0)
s = 148: (0, 59, 37, 0, 0, 12, 0, 22, 0, 6, 39, 0)
s = 149: (0, 52, 93, 0, 0, 12, 0, 12, 0, 8, 66, 0)
s = 150: (0, 40, 33, 0, 0, 15, 0, 24, 0, 7, 104, 0)
s = 151: (0, 33, 32, 0, 0, 13, 0, 18, 0, 6, 36, 0)
s = 152: (0, 32, 53, 0, 0, 14, 0, 19, 0, 9, 58, 0)
s = 153: (0, 28, 49, 0, 0, 18, 0, 18, 0, 9, 43, 0)
s = 154: (0, 27, 37, 0, 0, 10, 0, 16, 0, 11, 55, 0)
s = 155: (0, 48, 37, 0, 0, 26, 0, 26, 0, 7, 67, 0)
s = 156: (0, 44, 69, 0, 0, 20, 0, 13, 0, 6, 74, 0)
s = 157: (0, 81, 46, 0, 0, 11, 0, 32, 0, 9, 58, 0)
s = 158: (0, 30, 32, 0, 0, 13, 0, 14, 0, 10, 50, 0)
s = 159: (0, 46, 30, 0, 0, 23, 0, 15, 0, 8, 51, 0)
s = 160: (0, 58, 48, 0, 0, 17, 0, 21, 0, 7, 90, 0)
s = 161: (0, 46, 41, 0, 0, 12, 0, 30, 0, 8, 63, 0)
s = 162: (0, 35, 47, 0, 0, 9, 0, 28, 0, 10, 72, 0)
s = 163: (0, 45, 64, 0, 0, 24, 0, 21, 0, 6, 47, 0)
s = 164: (0, 42, 54, 0, 0, 9, 0, 19, 0, 7, 100, 0)
s = 165: (0, 31, 63, 0, 0, 9, 0, 13, 0, 6, 47, 0)
s = 166: (0, 52, 69, 0, 0, 17, 0, 23, 0, 7, 49, 0)
s = 167: (0, 35, 57, 0, 0, 22, 0, 13, 0, 8, 68, 0)
s = 168: (0, 31, 47, 0, 0, 23, 0, 18, 0, 6, 37, 0)
s = 169: (0, 60, 46, 0, 0, 21, 0, 16, 0, 6, 60, 0)
s = 170: (0, 28, 55, 0, 0, 18, 0, 18, 0, 7, 57, 0)
s = 171: (0, 23, 59, 0, 0, 21, 0, 26, 0, 9, 68, 0)
s = 172: (0, 33, 51, 0, 0, 27, 0, 26, 0, 9, 47, 0)
s = 173: (0, 39, 49, 0, 0, 16, 0, 30, 0, 5, 53, 0)
s = 174: (0, 37, 42, 0, 0, 18, 0, 32, 0, 9, 65, 0)
s = 175: (0, 44, 37, 0, 0, 18, 0, 19, 0, 6, 53, 0)
s = 176: (0, 37, 49, 0, 0, 11, 0, 34, 0, 8, 66, 0)
s = 177: (0, 25, 51, 0, 0, 18, 0, 23, 0, 8, 45, 0)
s = 178: (0, 45, 68, 0, 0, 14, 0, 16, 0, 11, 73, 0)
s = 179: (0, 36, 48, 0, 0, 16, 0, 20, 0, 9, 69, 0)
s = 180: (0, 40, 38, 0, 0, 13, 0, 23, 0, 8, 39, 0)
s = 181: (0, 59, 30, 0, 0, 13, 0, 22, 0, 12, 58, 0)
s = 182: (0, 44, 40, 0, 0, 16, 0, 17, 0, 9, 83, 0)
s = 183: (0, 33, 38, 0, 0, 19, 0, 25, 0, 12, 48, 0)
s = 184: (0, 30, 40, 0, 0, 23, 0, 26, 0, 9, 40, 0)
s = 185: (0, 44, 43, 0, 0, 10, 0, 32, 0, 5, 68, 0)
s = 186: (0, 42, 50, 0, 0, 17, 0, 24, 0, 11, 86, 0)
s = 187: (0, 45, 61, 0, 0, 22, 0, 18, 0, 8, 54, 0)
s = 188: (0, 53, 55, 0, 0, 14, 0, 30, 0, 6, 65, 0)
s = 189: (0, 29, 57, 0, 0, 20, 0, 21, 0, 10, 73, 0)
s = 190: (0, 45, 83, 0, 0, 17, 0, 13, 0, 7, 43, 0)
s = 191: (0, 78, 45, 0, 0, 15, 0, 15, 0, 4, 61, 0)
s = 192: (0, 26, 41, 0, 0, 13, 0, 23, 0, 5, 65, 0)
s = 193: (0, 28, 44, 0, 0, 17, 0, 31, 0, 5, 110, 0)
s = 194: (0, 50, 60, 0, 0, 12, 0, 15, 0, 9, 54, 0)
s = 195: (0, 73, 39, 0, 0, 22, 0, 16, 0, 5, 51, 0)
s = 196: (0, 58, 52, 0, 0, 18, 0, 24, 0, 4, 36, 0)
s = 197: (0, 41, 37, 0, 0, 21, 0, 21, 0, 9, 39, 0)
s = 198: (0, 32, 57, 0, 0, 18, 0, 29, 0, 6, 47, 0)
s = 199: (0, 28, 52, 0, 0, 15, 0, 22, 0, 7, 55, 0)
s = 200: (0, 39, 31, 0, 0, 16, 0, 29, 0, 6, 91, 0)
------------------------------------------------------------------------
RESOURCE k = 3
s = 1: (0, 0, 0, 8, 9, 0, 78, 0, 16, 0, 0, 0)
s = 2: (0, 0, 0, 7, 8, 0, 81, 0, 12, 0, 0, 0)
s = 3: (0, 0, 0, 7, 11, 0, 79, 0, 9, 0, 0, 0)
s = 4: (0, 0, 0, 6, 7, 0, 70, 0, 16, 0, 0, 0)
s = 5: (0, 0, 0, 6, 7, 0, 80, 0, 20, 0, 0, 0)
s = 6: (0, 0, 0, 5, 11, 0, 54, 0, 16, 0, 0, 0)
s = 7: (0, 0, 0, 6, 7, 0, 80, 0, 21, 0, 0, 0)
s = 8: (0, 0, 0, 5, 7, 0, 79, 0, 11, 0, 0, 0)
s = 9: (0, 0, 0, 4, 6, 0, 63, 0, 14, 0, 0, 0)
s = 10: (0, 0, 0, 4, 11, 0, 96, 0, 19, 0, 0, 0)
s = 11: (0, 0, 0, 5, 10, 0, 90, 0, 10, 0, 0, 0)
s = 12: (0, 0, 0, 7, 8, 0, 64, 0, 17, 0, 0, 0)
s = 13: (0, 0, 0, 5, 8, 0, 68, 0, 17, 0, 0, 0)
s = 14: (0, 0, 0, 8, 9, 0, 119, 0, 18, 0, 0, 0)
s = 15: (0, 0, 0, 6, 12, 0, 86, 0, 27, 0, 0, 0)
s = 16: (0, 0, 0, 4, 15, 0, 59, 0, 14, 0, 0, 0)
s = 17: (0, 0, 0, 7, 9, 0, 71, 0, 14, 0, 0, 0)
s = 18: (0, 0, 0, 10, 6, 0, 64, 0, 25, 0, 0, 0)
s = 19: (0, 0, 0, 6, 13, 0, 64, 0, 17, 0, 0, 0)
s = 20: (0, 0, 0, 4, 9, 0, 74, 0, 15, 0, 0, 0)
s = 21: (0, 0, 0, 5, 6, 0, 77, 0, 18, 0, 0, 0)
s = 22: (0, 0, 0, 7, 9, 0, 95, 0, 15, 0, 0, 0)
s = 23: (0, 0, 0, 8, 7, 0, 81, 0, 26, 0, 0, 0)
s = 24: (0, 0, 0, 4, 11, 0, 64, 0, 14, 0, 0, 0)
s = 25: (0, 0, 0, 6, 13, 0, 51, 0, 13, 0, 0, 0)
s = 26: (0, 0, 0, 6, 7, 0, 120, 0, 24, 0, 0, 0)
s = 27: (0, 0, 0, 5, 7, 0, 59, 0, 10, 0, 0, 0)
s = 28: (0, 0, 0, 7, 9, 0, 105, 0, 19, 0, 0, 0)
s = 29: (0, 0, 0, 6, 12, 0, 86, 0, 19, 0, 0, 0)
s = 30: (0, 0, 0, 8, 8, 0, 58, 0, 15, 0, 0, 0)
s = 31: (0, 0, 0, 6, 7, 0, 84, 0, 23, 0, 0, 0)
s = 32: (0, 0, 0, 5, 9, 0, 120, 0, 12, 0, 0, 0)
s = 33: (0, 0, 0, 5, 6, 0, 86, 0, 14, 0, 0, 0)
s = 34: (0, 0, 0, 8, 13, 0, 81, 0, 15, 0, 0, 0)
s = 35: (0, 0, 0, 5, 7, 0, 73, 0, 14, 0, 0, 0)
s = 36: (0, 0, 0, 8, 8, 0, 73, 0, 24, 0, 0, 0)
s = 37: (0, 0, 0, 7, 10, 0, 68, 0, 25, 0, 0, 0)
s = 38: (0, 0, 0, 6, 12, 0, 74, 0, 20, 0, 0, 0)
s = 39: (0, 0, 0, 6, 12, 0, 92, 0, 14, 0, 0, 0)
s = 40: (0, 0, 0, 5, 11, 0, 80, 0, 14, 0, 0, 0)
s = 41: (0, 0, 0, 5, 12, 0, 82, 0, 17, 0, 0, 0)
s = 42: (0, 0, 0, 6, 8, 0, 99, 0, 16, 0, 0, 0)
s = 43: (0, 0, 0, 6, 6, 0, 62, 0, 14, 0, 0, 0)
s = 44: (0, 0, 0, 6, 10, 0, 107, 0, 14, 0, 0, 0)
s = 45: (0, 0, 0, 8, 7, 0, 71, 0, 13, 0, 0, 0)
s = 46: (0, 0, 0, 7, 6, 0, 60, 0, 27, 0, 0, 0)
s = 47: (0, 0, 0, 4, 8, 0, 78, 0, 16, 0, 0, 0)
s = 48: (0, 0, 0, 5, 7, 0, 90, 0, 16, 0, 0, 0)
s = 49: (0, 0, 0, 7, 7, 0, 88, 0, 11, 0, 0, 0)
s = 50: (0, 0, 0, 8, 13, 0, 80, 0, 19, 0, 0, 0)
s = 51: (0, 0, 0, 5, 8, 0, 48, 0, 15, 0, 0, 0)
s = 52: (0, 0, 0, 5, 11, 0, 62, 0, 21, 0, 0, 0)
s = 53: (0, 0, 0, 5, 8, 0, 98, 0, 14, 0, 0, 0)
s = 54: (0, 0, 0, 9, 10, 0, 68, 0, 16, 0, 0, 0)
s = 55: (0, 0, 0, 7, 13, 0, 108, 0, 26, 0, 0, 0)
s = 56: (0, 0, 0, 12, 7, 0, 60, 0, 13, 0, 0, 0)
s = 57: (0, 0, 0, 5, 13, 0, 128, 0, 14, 0, 0, 0)
s = 58: (0, 0, 0, 6, 7, 0, 49, 0, 20, 0, 0, 0)
s = 59: (0, 0, 0, 7, 7, 0, 103, 0, 11, 0, 0, 0)
s = 60: (0, 0, 0, 6, 11, 0, 56, 0, 19, 0, 0, 0)
s = 61: (0, 0, 0, 9, 11, 0, 106, 0, 21, 0, 0, 0)
s = 62: (0, 0, 0, 5, 8, 0, 73, 0, 17, 0, 0, 0)
s = 63: (0, 0, 0, 6, 14, 0, 107, 0, 12, 0, 0, 0)
s = 64: (0, 0, 0, 7, 6, 0, 78, 0, 16, 0, 0, 0)
s = 65: (0, 0, 0, 10, 13, 0, 96, 0, 12, 0, 0, 0)
s = 66: (0, 0, 0, 6, 13, 0, 55, 0, 10, 0, 0, 0)
s = 67: (0, 0, 0, 4, 10, 0, 78, 0, 14, 0, 0, 0)
s = 68: (0, 0, 0, 7, 8, 0, 136, 0, 21, 0, 0, 0)
s = 69: (0, 0, 0, 6, 10, 0, 106, 0, 18, 0, 0, 0)
s = 70: (0, 0, 0, 9, 9, 0, 71, 0, 22, 0, 0, 0)
s = 71: (0, 0, 0, 8, 5, 0, 112, 0, 14, 0, 0, 0)
s = 72: (0, 0, 0, 5, 9, 0, 70, 0, 10, 0, 0, 0)
s = 73: (0, 0, 0, 9, 13, 0, 52, 0, 10, 0, 0, 0)
s = 74: (0, 0, 0, 6, 6, 0, 64, 0, 19, 0, 0, 0)
s = 75: (0, 0, 0, 7, 11, 0, 57, 0, 22, 0, 0, 0)
s = 76: (0, 0, 0, 4, 12, 0, 108, 0, 14, 0, 0, 0)
s = 77: (0, 0, 0, 7, 10, 0, 144, 0, 23, 0, 0, 0)
s = 78: (0, 0, 0, 4, 13, 0, 86, 0, 11, 0, 0, 0)
s = 79: (0, 0, 0, 5, 10, 0, 110, 0, 11, 0, 0, 0)
s = 80: (0, 0, 0, 8, 10, 0, 83, 0, 16, 0, 0, 0)
s = 81: (0, 0, 0, 7, 9, 0, 82, 0, 19, 0, 0, 0)
s = 82: (0, 0, 0, 7, 12, 0, 63, 0, 18, 0, 0, 0)
s = 83: (0, 0, 0, 8, 10, 0, 102, 0, 20, 0, 0, 0)
s = 84: (0, 0, 0, 6, 9, 0, 85, 0, 12, 0, 0, 0)
s = 85: (0, 0, 0, 5, 5, 0, 59, 0, 15, 0, 0, 0)
s = 86: (0, 0, 0, 7, 7, 0, 121, 0, 12, 0, 0, 0)
s = 87: (0, 0, 0, 4, 11, 0, 49, 0, 12, 0, 0, 0)
s = 88: (0, 0, 0, 6, 6, 0, 90, 0, 13, 0, 0, 0)
s = 89: (0, 0, 0, 8, 10, 0, 112, 0, 15, 0, 0, 0)
s = 90: (0, 0, 0, 6, 13, 0, 88, 0, 30, 0, 0, 0)
s = 91: (0, 0, 0, 8, 6, 0, 101, 0, 12, 0, 0, 0)
s = 92: (0, 0, 0, 6, 6, 0, 81, 0, 12, 0, 0, 0)
s = 93: (0, 0, 0, 7, 12, 0, 54, 0, 24, 0, 0, 0)
s = 94: (0, 0, 0, 7, 6, 0, 138, 0, 21, 0, 0, 0)
s = 95: (0, 0, 0, 4, 11, 0, 110, 0, 17, 0, 0, 0)
s = 96: (0, 0, 0, 9, 9, 0, 65, 0, 16, 0, 0, 0)
s = 97: (0, 0, 0, 6, 7, 0, 90, 0, 15, 0, 0, 0)
s = 98: (0, 0, 0, 6, 6, 0, 78, 0, 15, 0, 0, 0)
s = 99: (0, 0, 0, 8, 7, 0, 81, 0, 14, 0, 0, 0)
s = 100: (0, 0, 0, 6, 6, 0, 99, 0, 26, 0, 0, 0)
s = 101: (0, 0, 0, 6, 12, 0, 48, 0, 16, 0, 0, 0)
s = 102: (0, 0, 0, 5, 9, 0, 57, 0, 14, 0, 0, 0)
s = 103: (0, 0, 0, 5, 8, 0, 74, 0, 15, 0, 0, 0)
s = 104: (0, 0, 0, 6, 7, 0, 107, 0, 21, 0, 0, 0)
s = 105: (0, 0, 0, 8, 9, 0, 53, 0, 21, 0, 0, 0)
s = 106: (0, 0, 0, 5, 7, 0, 75, 0, 19, 0, 0, 0)
s = 107: (0, 0, 0, 5, 11, 0, 51, 0, 12, 0, 0, 0)
s = 108: (0, 0, 0, 9, 7, 0, 50, 0, 11, 0, 0, 0)
s = 109: (0, 0, 0, 5, 6, 0, 51, 0, 23, 0, 0, 0)
s = 110: (0, 0, 0, 7, 8, 0, 74, 0, 21, 0, 0, 0)
s = 111: (0, 0, 0, 4, 8, 0, 54, 0, 23, 0, 0, 0)
s = 112: (0, 0, 0, 5, 6, 0, 144, 0, 26, 0, 0, 0)
s = 113: (0, 0, 0, 7, 6, 0, 72, 0, 9, 0, 0, 0)
s = 114: (0, 0, 0, 4, 12, 0, 80, 0, 12, 0, 0, 0)
s = 115: (0, 0, 0, 6, 6, 0, 78, 0, 19, 0, 0, 0)
s = 116: (0, 0, 0, 6, 12, 0, 57, 0, 24, 0, 0, 0)
s = 117: (0, 0, 0, 4, 10, 0, 59, 0, 14, 0, 0, 0)
s = 118: (0, 0, 0, 4, 9, 0, 138, 0, 14, 0, 0, 0)
s = 119: (0, 0, 0, 4, 8, 0, 57, 0, 16, 0, 0, 0)
s = 120: (0, 0, 0, 6, 12, 0, 63, 0, 12, 0, 0, 0)
s = 121: (0, 0, 0, 5, 10, 0, 140, 0, 18, 0, 0, 0)
s = 122: (0, 0, 0, 5, 11, 0, 156, 0, 15, 0, 0, 0)
s = 123: (0, 0, 0, 9, 9, 0, 62, 0, 12, 0, 0, 0)
s = 124: (0, 0, 0, 5, 13, 0, 108, 0, 13, 0, 0, 0)
s = 125: (0, 0, 0, 7, 5, 0, 58, 0, 18, 0, 0, 0)
s = 126: (0, 0, 0, 5, 8, 0, 103, 0, 18, 0, 0, 0)
s = 127: (0, 0, 0, 5, 9, 0, 88, 0, 12, 0, 0, 0)
s = 128: (0, 0, 0, 7, 7, 0, 86, 0, 13, 0, 0, 0)
s = 129: (0, 0, 0, 5, 6, 0, 86, 0, 15, 0, 0, 0)
s = 130: (0, 0, 0, 9, 8, 0, 61, 0, 20, 0, 0, 0)
s = 131: (0, 0, 0, 7, 7, 0, 81, 0, 12, 0, 0, 0)
s = 132: (0, 0, 0, 9, 11, 0, 60, 0, 12, 0, 0, 0)
s = 133: (0, 0, 0, 9, 11, 0, 76, 0, 11, 0, 0, 0)
s = 134: (0, 0, 0, 5, 14, 0, 122, 0, 14, 0, 0, 0)
s = 135: (0, 0, 0, 6, 7, 0, 81, 0, 27, 0, 0, 0)
s = 136: (0, 0, 0, 6, 9, 0, 81, 0, 15, 0, 0, 0)
s = 137: (0, 0, 0, 8, 9, 0, 89, 0, 15, 0, 0, 0)
s = 138: (0, 0, 0, 10, 11, 0, 72, 0, 13, 0, 0, 0)
s = 139: (0, 0, 0, 6, 10, 0, 56, 0, 15, 0, 0, 0)
s = 140: (0, 0, 0, 9, 7, 0, 48, 0, 13, 0, 0, 0)
s = 141: (0, 0, 0, 4, 5, 0, 127, 0, 18, 0, 0, 0)
s = 142: (0, 0, 0, 5, 9, 0, 128, 0, 18, 0, 0, 0)
s = 143: (0, 0, 0, 7, 11, 0, 106, 0, 13, 0, 0, 0)
s = 144: (0, 0, 0, 10, 8, 0, 119, 0, 14, 0, 0, 0)
s = 145: (0, 0, 0, 9, 6, 0, 57, 0, 19, 0, 0, 0)
s = 146: (0, 0, 0, 6, 11, 0, 76, 0, 10, 0, 0, 0)
s = 147: (0, 0, 0, 8, 8, 0, 85, 0, 18, 0, 0, 0)
s = 148: (0, 0, 0, 6, 14, 0, 110, 0, 9, 0, 0, 0)
s = 149: (0, 0, 0, 4, 6, 0, 76, 0, 17, 0, 0, 0)
s = 150: (0, 0, 0, 10, 7, 0, 86, 0, 25, 0, 0, 0)
s = 151: (0, 0, 0, 6, 10, 0, 56, 0, 20, 0, 0, 0)
s = 152: (0, 0, 0, 4, 8, 0, 105, 0, 17, 0, 0, 0)
s = 153: (0, 0, 0, 7, 12, 0, 60, 0, 19, 0, 0, 0)
s = 154: (0, 0, 0, 7, 5, 0, 53, 0, 17, 0, 0, 0)
s = 155: (0, 0, 0, 5, 12, 0, 127, 0, 16, 0, 0, 0)
s = 156: (0, 0, 0, 5, 10, 0, 75, 0, 26, 0, 0, 0)
s = 157: (0, 0, 0, 12, 7, 0, 124, 0, 27, 0, 0, 0)
s = 158: (0, 0, 0, 9, 13, 0, 73, 0, 13, 0, 0, 0)
s = 159: (0, 0, 0, 5, 9, 0, 57, 0, 12, 0, 0, 0)
s = 160: (0, 0, 0, 7, 8, 0, 75, 0, 14, 0, 0, 0)
s = 161: (0, 0, 0, 6, 9, 0, 60, 0, 18, 0, 0, 0)
s = 162: (0, 0, 0, 5, 13, 0, 75, 0, 18, 0, 0, 0)
s = 163: (0, 0, 0, 8, 7, 0, 72, 0, 24, 0, 0, 0)
s = 164: (0, 0, 0, 8, 12, 0, 95, 0, 22, 0, 0, 0)
s = 165: (0, 0, 0, 9, 8, 0, 90, 0, 9, 0, 0, 0)
s = 166: (0, 0, 0, 7, 10, 0, 128, 0, 18, 0, 0, 0)
s = 167: (0, 0, 0, 10, 12, 0, 79, 0, 16, 0, 0, 0)
s = 168: (0, 0, 0, 7, 7, 0, 74, 0, 16, 0, 0, 0)
s = 169: (0, 0, 0, 6, 7, 0, 92, 0, 19, 0, 0, 0)
s = 170: (0, 0, 0, 5, 7, 0, 92, 0, 14, 0, 0, 0)
s = 171: (0, 0, 0, 10, 8, 0, 96, 0, 22, 0, 0, 0)
s = 172: (0, 0, 0, 7, 9, 0, 103, 0, 16, 0, 0, 0)
s = 173: (0, 0, 0, 9, 12, 0, 57, 0, 20, 0, 0, 0)
s = 174: (0, 0, 0, 6, 6, 0, 104, 0, 12, 0, 0, 0)
s = 175: (0, 0, 0, 5, 12, 0, 57, 0, 15, 0, 0, 0)
s = 176: (0, 0, 0, 10, 6, 0, 72, 0, 13, 0, 0, 0)
s = 177: (0, 0, 0, 6, 14, 0, 104, 0, 18, 0, 0, 0)
s = 178: (0, 0, 0, 6, 15, 0, 79, 0, 14, 0, 0, 0)
s = 179: (0, 0, 0, 5, 8, 0, 110, 0, 13, 0, 0, 0)
s = 180: (0, 0, 0, 4, 9, 0, 104, 0, 18, 0, 0, 0)
s = 181: (0, 0, 0, 9, 10, 0, 69, 0, 21, 0, 0, 0)
s = 182: (0, 0, 0, 9, 9, 0, 59, 0, 17, 0, 0, 0)
s = 183: (0, 0, 0, 6, 10, 0, 66, 0, 20, 0, 0, 0)
s = 184: (0, 0, 0, 8, 8, 0, 58, 0, 13, 0, 0, 0)
s = 185: (0, 0, 0, 7, 6, 0, 112, 0, 21, 0, 0, 0)
s = 186: (0, 0, 0, 9, 9, 0, 72, 0, 12, 0, 0, 0)
s = 187: (0, 0, 0, 9, 7, 0, 120, 0, 21, 0, 0, 0)
s = 188: (0, 0, 0, 9, 14, 0, 58, 0, 9, 0, 0, 0)
s = 189: (0, 0, 0, 7, 11, 0, 87, 0, 20, 0, 0, 0)
s = 190: (0, 0, 0, 6, 12, 0, 67, 0, 15, 0, 0, 0)
s = 191: (0, 0, 0, 6, 8, 0, 85, 0, 15, 0, 0, 0)
s = 192: (0, 0, 0, 9, 11, 0, 105, 0, 9, 0, 0, 0)
s = 193: (0, 0, 0, 8, 9, 0, 59, 0, 18, 0, 0, 0)
s = 194: (0, 0, 0, 7, 8, 0, 81, 0, 16, 0, 0, 0)
s = 195: (0, 0, 0, 6, 7, 0, 63, 0, 26, 0, 0, 0)
s = 196: (0, 0, 0, 6, 7, 0, 103, 0, 22, 0, 0, 0)
s = 197: (0, 0, 0, 7, 6, 0, 92, 0, 15, 0, 0, 0)
s = 198: (0, 0, 0, 6, 8, 0, 98, 0, 10, 0, 0, 0)
s = 199: (0, 0, 0, 7, 10, 0, 78, 0, 15, 0, 0, 0)
s = 200: (0, 0, 0, 8, 11, 0, 85, 0, 12, 0, 0, 0)
************************************************************************
ES/LS-VALUES:
jobnr.   ES(i)    LS(i)
------------------------------------------------------------------------
  0        0        0
  1        0       72
  2        0       51
  3        0       59
  4        2       77
  5        9       70
  6        9       61
  7       26       79
  8        9       82
  9       30       84
 10       12       74
 11       32       86
************************************************************************
BIG-M-VALUES:
M1 = 74, M2 = 297
************************************************************************
